10 10 10
50
8 4 10
9 10 6
5 2 4
10 6 9
5 4 2
4 5 5
2 5 8
9 1 3
4 1 10
6 3 7
5 2 3
4 2 4
1 5 2
2 7 8
8 7 2
10 9 4
5 7 8
3 2 6
8 4 8
4 5 1
8 3 10
4 6 4
3 3 2
4 7 7
6 3 1
3 10 3
3 4 1
4 10 4
8 6 10
3 3 3
1 5 10
7 4 5
9 5 6
2 7 7
8 3 7
1 2 1
3 4 4
8 5 7
1 2 6
6 2 9
7 4 9
10 4 6
7 6 8
1 2 1
3 1 9
4 10 9
4 2 10
7 6 7
6 5 1
6 6 5
